76
125
100	13
99	16
98	16
97	10
96	11
95	13
94	18
93	13
92	12
91	11
90	12
89	12
88	8
87	12
86	22
85	12
84	11
83	12
82	17
81	11
80	14
79	12
78	14
77	13
76	12
75	8
74	14
73	10
72	11
71	8
70	18
69	11
68	11
67	13
66	17
65	19
64	14
63	17
62	16
61	15
60	12
59	13
58	14
57	14
56	19
55	15
54	14
53	9
52	18
51	18
50	10
49	5
48	9
47	20
46	14
45	11
44	14
43	15
42	15
41	9
40	15
39	13
38	9
37	11
36	9
35	10
34	18
33	15
32	12
31	13
30	11
29	10
28	11
27	13
26	13
25	20
